[runlim] version:		1.10
[runlim] time limit:		1800 seconds
[runlim] real time limit:	1800 seconds
[runlim] space limit:		30000 MB
[runlim] argv[0]:		/home/hvanh28/Minizinc/MiniZincIDE-2.8.6-bundle-linux-x86_64/bin/minizinc
[runlim] argv[1]:		--solver
[runlim] argv[2]:		Chuffed
[runlim] argv[3]:		--time-limit
[runlim] argv[4]:		1800000
[runlim] argv[5]:		--output-to-file
[runlim] argv[6]:		2/E-bcspwr02-1.log
[runlim] argv[7]:		--output-time
[runlim] argv[8]:		--statistics
[runlim] argv[9]:		CP-MZ-Chuffed.mzn
[runlim] argv[10]:		E-bcspwr02.dzn
[runlim] start:			Mon Oct  7 07:57:33 2024
[runlim] main pid:		545181
[runlim] log captured:
% Generated FlatZinc statistics:
%%%mzn-stat: paths=0
%%%mzn-stat: flatIntVars=168
%%%mzn-stat: flatIntConstraints=178
%%%mzn-stat: method="maximize"
%%%mzn-stat: flatTime=0.173614
%%%mzn-stat-end
WARNING: the --time-out flag has recently been changed.The time-out is now provided in milliseconds instead of seconds
%%%mzn-stat: nSolutions=1
%%%mzn-stat-end
[runlim] end:			Mon Oct  7 07:57:34 2024
[runlim] status:		ok
[runlim] result:		0
[runlim] children:		7
[runlim] real:			1.78 seconds
[runlim] time:			0.78 seconds
[runlim] space:			31.7 MB
[runlim] samples:		8
